p cnf 47 37
-11 17 2 0
29 -3 -27 0
2 4 -13 0
-36 42 19 0
13 -36 -35 0
-43 -11 46 0
-47 -2 19 0
2 -1 -46 0
27 -19 -4 0
31 -30 2 0
-13 -19 21 0
-3 -31 -6 0
18 2 -12 0
-38 2 45 0
42 29 -17 0
-25 -46 10 0
-3 -9 -6 0
-10 14 18 0
1 -27 32 0
-4 14 -2 0
35 4 -1 0
6 4 20 0
-6 -1 -20 0
3 40 8 0
4 1 25 0
-8 -1 11 0
-19 40 16 0
45 27 18 0
-6 -2 -24 0
-1 -8 -6 0
18 2 4 0
3 -1 5 0
10 3 -27 0
-6 -4 27 0
-12 -5 -27 0
32 -26 -4 0
28 -3 40 0
